244 5
10 10 10 10 10 

0 0 0 0 0 0 5 2 14 26 38 50 
0 0 0 0 0 0 4 3 5 11 12 
3 1 0 0 0 0 4 10 9 6 4 
4 2 0 0 0 0 2 8 7 
5 3 0 0 0 0 1 6 
5 8 0 0 0 0 1 13 
2 5 0 0 0 0 1 13 
4 5 0 0 0 0 1 13 
4 5 0 0 0 0 2 13 175 
7 7 0 0 0 0 1 13 
8 8 0 0 0 0 1 13 
4 6 0 0 0 0 1 13 
0 0 0 0 0 0 1 62 
0 0 0 0 0 0 6 15 16 21 22 23 24 
2 0 0 0 0 1 3 20 19 17 
2 0 0 0 0 6 2 19 18 
10 0 0 0 0 7 1 18 
8 0 0 0 0 7 2 25 77 
4 0 0 0 0 8 1 25 
5 0 0 0 0 6 1 25 
1 0 0 0 0 3 1 25 
8 0 0 0 0 2 1 25 
7 0 0 0 0 6 1 25 
1 0 0 0 0 4 1 25 
0 0 0 0 0 0 1 62 
0 0 0 0 0 0 4 27 28 30 36 
8 0 0 0 1 0 2 35 29 
10 0 0 0 6 0 4 34 32 31 64 
4 0 0 0 5 0 2 33 31 
7 0 0 0 3 0 1 32 
5 0 0 0 7 0 1 37 
2 0 0 0 5 0 1 37 
7 0 0 0 7 0 1 37 
10 0 0 0 5 0 1 37 
6 0 0 0 6 0 1 37 
9 0 0 0 5 0 1 37 
0 0 0 0 0 0 1 62 
0 0 0 0 0 0 7 39 40 41 42 46 47 48 
6 0 0 1 0 0 2 44 43 
8 0 0 4 0 0 1 44 
10 0 0 7 0 0 1 43 
1 0 0 3 0 0 1 43 
6 0 0 6 0 0 1 45 
4 0 0 4 0 0 1 45 
6 0 0 9 0 0 2 49 132 
7 0 0 6 0 0 1 49 
10 0 0 4 0 0 1 49 
7 0 0 6 0 0 1 49 
0 0 0 0 0 0 1 62 
0 0 0 0 0 0 5 51 52 54 55 60 
7 1 0 0 0 0 3 59 58 57 
9 5 0 0 0 0 2 58 53 
4 5 0 0 0 0 1 56 
8 8 0 0 0 0 1 57 
10 4 0 0 0 0 1 56 
2 2 0 0 0 0 1 61 
2 8 0 0 0 0 1 61 
5 4 0 0 0 0 1 61 
3 8 0 0 0 0 1 61 
3 5 0 0 0 0 1 61 
0 0 0 0 0 0 1 62 
0 0 0 0 0 0 5 63 75 87 99 111 
0 0 0 0 0 0 5 64 65 66 67 70 
3 1 0 0 0 0 3 73 71 68 
8 6 0 0 0 0 3 73 72 71 
4 8 0 0 0 0 2 73 71 
4 7 0 0 0 0 1 69 
1 4 0 0 0 0 1 72 
1 4 0 0 0 0 1 71 
2 5 0 0 0 0 1 72 
8 7 0 0 0 0 1 74 
5 2 0 0 0 0 1 74 
7 6 0 0 0 0 1 74 
0 0 0 0 0 0 1 123 
0 0 0 0 0 0 6 76 77 79 83 84 85 
2 0 1 0 0 0 3 82 80 78 
4 0 6 0 0 0 3 82 81 80 
5 0 6 0 0 0 1 81 
7 0 4 0 0 0 1 80 
3 0 2 0 0 0 1 86 
6 0 6 0 0 0 1 86 
10 0 8 0 0 0 1 86 
6 0 4 0 0 0 1 86 
1 0 5 0 0 0 1 86 
3 0 8 0 0 0 1 86 
0 0 0 0 0 0 1 123 
0 0 0 0 0 0 3 88 89 90 
5 0 0 1 0 0 4 97 96 94 91 
3 0 0 6 0 0 3 96 95 91 
1 0 0 4 0 0 3 95 93 92 
4 0 0 3 0 0 1 93 
2 0 0 3 0 0 1 94 
10 0 0 4 0 0 1 98 
10 0 0 9 0 0 1 98 
6 0 0 4 0 0 1 98 
8 0 0 8 0 0 1 98 
10 0 0 8 0 0 1 98 
0 0 0 0 0 0 1 123 
0 0 0 0 0 0 5 100 101 102 103 105 
3 2 0 0 0 0 2 107 104 
2 2 0 0 0 0 2 109 106 
8 7 0 0 0 0 2 107 106 
6 3 0 0 0 0 1 104 
3 6 0 0 0 0 1 106 
5 10 0 0 0 0 1 108 
7 5 0 0 0 0 1 110 
4 4 0 0 0 0 1 110 
5 6 0 0 0 0 1 110 
3 5 0 0 0 0 1 110 
0 0 0 0 0 0 1 123 
0 0 0 0 0 0 4 112 113 114 121 
10 0 0 0 0 1 3 120 117 116 
8 0 0 0 0 5 3 120 117 115 
5 0 0 0 0 8 3 120 118 116 
1 0 0 0 0 5 2 119 118 
2 0 0 0 0 4 1 119 
1 0 0 0 0 3 1 118 
7 0 0 0 0 5 1 122 
10 0 0 0 0 5 1 122 
5 0 0 0 0 6 1 122 
8 0 0 0 0 8 1 122 
0 0 0 0 0 0 1 123 
0 0 0 0 0 0 5 124 136 148 160 172 
0 0 0 0 0 0 4 125 127 128 129 
2 0 0 0 2 0 4 134 133 131 126 
10 0 0 0 4 0 2 132 130 
1 0 0 0 5 0 2 132 130 
9 0 0 0 7 0 2 131 130 
4 0 0 0 4 0 1 131 
5 0 0 0 4 0 1 135 
8 0 0 0 10 0 1 135 
4 0 0 0 5 0 1 135 
8 0 0 0 5 0 1 135 
1 0 0 0 4 0 1 135 
0 0 0 0 0 0 1 184 
0 0 0 0 0 0 7 137 139 142 143 144 145 146 
4 1 0 0 0 0 1 138 
3 4 0 0 0 0 2 141 140 
4 2 0 0 0 0 2 141 140 
4 6 0 0 0 0 1 147 
2 4 0 0 0 0 1 147 
9 5 0 0 0 0 1 147 
10 8 0 0 0 0 1 147 
3 8 0 0 0 0 1 147 
1 7 0 0 0 0 1 147 
10 5 0 0 0 0 1 147 
0 0 0 0 0 0 1 184 
0 0 0 0 0 0 6 149 150 151 152 153 155 
3 0 1 0 0 0 3 158 156 154 
6 0 4 0 0 0 3 158 156 154 
9 0 8 0 0 0 3 158 156 154 
4 0 1 0 0 0 3 158 156 154 
3 0 4 0 0 0 2 157 156 
9 0 6 0 0 0 1 157 
10 0 4 0 0 0 1 156 
8 0 7 0 0 0 1 159 
7 0 8 0 0 0 1 159 
7 0 7 0 0 0 1 159 
0 0 0 0 0 0 1 184 
0 0 0 0 0 0 5 161 162 164 169 170 
2 0 0 0 0 1 4 168 167 165 163 
2 0 0 0 0 6 2 165 163 
7 0 0 0 0 9 1 166 
7 0 0 0 0 4 1 165 
3 0 0 0 0 6 1 171 
7 0 0 0 0 4 1 171 
3 0 0 0 0 5 1 171 
10 0 0 0 0 3 1 171 
3 0 0 0 0 6 1 171 
5 0 0 0 0 6 1 171 
0 0 0 0 0 0 1 184 
0 0 0 0 0 0 4 173 174 176 177 
4 1 0 0 0 0 4 182 181 180 175 
4 10 0 0 0 0 3 181 179 178 
7 6 0 0 0 0 2 179 178 
6 5 0 0 0 0 2 180 178 
10 7 0 0 0 0 1 178 
4 6 0 0 0 0 1 183 
3 3 0 0 0 0 1 183 
4 3 0 0 0 0 1 183 
10 5 0 0 0 0 1 183 
4 4 0 0 0 0 1 183 
0 0 0 0 0 0 1 184 
0 0 0 0 0 0 4 185 197 209 221 
0 0 0 0 0 0 5 186 187 188 190 195 
10 1 0 0 0 0 3 194 192 189 
8 7 0 0 0 0 2 193 191 
6 4 0 0 0 0 2 192 191 
7 9 0 0 0 0 1 191 
1 3 0 0 0 0 1 191 
8 8 0 0 0 0 1 196 
5 9 0 0 0 0 1 196 
9 3 0 0 0 0 1 196 
5 2 0 0 0 0 1 196 
3 4 0 0 0 0 1 196 
0 0 0 0 0 0 1 233 
0 0 0 0 0 0 5 198 199 200 201 205 
4 0 0 1 0 0 3 207 204 203 
3 0 0 4 0 0 2 207 203 
10 0 0 3 0 0 2 207 202 
5 0 0 7 0 0 2 207 202 
9 0 0 3 0 0 1 206 
8 0 0 8 0 0 1 206 
8 0 0 7 0 0 1 206 
6 0 0 6 0 0 1 206 
9 0 0 4 0 0 1 208 
10 0 0 7 0 0 1 208 
0 0 0 0 0 0 1 233 
0 0 0 0 0 0 5 210 212 213 214 219 
4 1 0 0 0 0 1 211 
7 6 0 0 0 0 3 218 217 215 
5 5 0 0 0 0 1 216 
5 3 0 0 0 0 1 216 
5 5 0 0 0 0 1 215 
3 6 0 0 0 0 1 220 
8 5 0 0 0 0 1 220 
10 5 0 0 0 0 1 220 
8 4 0 0 0 0 1 220 
4 10 0 0 0 0 1 220 
0 0 0 0 0 0 1 233 
0 0 0 0 0 0 6 222 226 227 228 230 231 
1 0 1 0 0 0 3 225 224 223 
5 0 4 0 0 0 1 229 
6 0 4 0 0 0 1 229 
9 0 6 0 0 0 1 229 
7 0 10 0 0 0 1 229 
3 0 4 0 0 0 1 229 
3 0 7 0 0 0 1 229 
5 0 4 0 0 0 1 232 
10 0 6 0 0 0 1 232 
3 0 4 0 0 0 1 232 
0 0 0 0 0 0 1 233 
0 0 0 0 0 0 3 234 236 237 
3 0 0 1 0 0 3 241 238 235 
9 0 0 5 0 0 4 243 242 240 239 
7 0 0 5 0 0 2 241 239 
5 0 0 3 0 0 2 240 239 
1 0 0 6 0 0 1 239 
5 0 0 4 0 0 1 244 
3 0 0 7 0 0 1 244 
10 0 0 8 0 0 1 244 
2 0 0 7 0 0 1 244 
4 0 0 4 0 0 1 244 
0 0 0 0 0 0 0 
